Route #1: 63 24 58 49 55 64 12 8 
Route #2: 44 16 23 10 27 65 47 52 
Route #3: 30 20 9 11 57 45 
Route #4: 18 48 35 32 7 
Route #5: 6 46 3 39 43 62 59 21 33 
Route #6: 40 29 34 2 13 14 25 53 19 
Route #7: 54 41 60 26 22 56 
Route #8: 50 5 4 37 36 51 17 42 
Route #9: 28 15 38 31 61 
cost 1247.21
